
Gurobi 8.1.1 (win64) logging started 11/26/19 23:03:42

Changed value of parameter LogFile to logs/miss/rlt/miss-05-30-1.log
   Prev: gurobi.log  Default: 
Changed value of parameter LogToConsole to 0
   Prev: 1  Min: 0  Max: 1  Default: 1
Changed value of parameter TimeLimit to 3600.0
   Prev: 1e+100  Min: 0.0  Max: 1e+100  Default: 1e+100
Optimize a model with 41090 rows, 13861 columns and 96530 nonzeros
Variable types: 0 continuous, 13861 integer (166 binary)
Coefficient statistics:
  Matrix range     [1e+00, 1e+00]
  Objective range  [1e+00, 1e+00]
  Bounds range     [1e+00, 1e+00]
  RHS range        [1e+00, 1e+00]
Found heuristic solution: objective 5.0000000
Presolve time: 0.30s
Presolved: 41090 rows, 13861 columns, 96530 nonzeros
Variable types: 0 continuous, 13861 integer (13861 binary)

Root relaxation: objective 1.480130e+00, 1015 iterations, 0.43 seconds

    Nodes    |    Current Node    |     Objective Bounds      |     Work
 Expl Unexpl |  Obj  Depth IntInf | Incumbent    BestBd   Gap | It/Node Time

     0     0    1.48013    0  787    5.00000    1.48013  70.4%     -    1s
H    0     0                       4.0000000    1.48013  63.0%     -    1s
     0     0    2.00000    0  438    4.00000    2.00000  50.0%     -    3s
     0     0    2.02620    0  434    4.00000    2.02620  49.3%     -    6s
     0     0    2.06799    0  481    4.00000    2.06799  48.3%     -    7s
     0     0    2.06839    0  481    4.00000    2.06839  48.3%     -   10s
     0     0    2.09224    0  516    4.00000    2.09224  47.7%     -   10s
     0     0    2.09359    0  508    4.00000    2.09359  47.7%     -   11s
     0     0    2.10736    0  501    4.00000    2.10736  47.3%     -   11s
     0     0    2.11073    0  495    4.00000    2.11073  47.2%     -   12s
     0     0    2.12272    0  489    4.00000    2.12272  46.9%     -   13s
     0     0    2.12387    0  486    4.00000    2.12387  46.9%     -   13s
     0     0    2.12482    0  502    4.00000    2.12482  46.9%     -   14s
     0     0    2.12482    0  507    4.00000    2.12482  46.9%     -   14s
     0     0    2.13365    0  551    4.00000    2.13365  46.7%     -   14s
     0     0    2.13492    0  547    4.00000    2.13492  46.6%     -   15s
     0     0    2.13505    0  560    4.00000    2.13505  46.6%     -   15s
     0     0    2.14249    0  538    4.00000    2.14249  46.4%     -   16s
     0     0    2.14263    0  532    4.00000    2.14263  46.4%     -   17s
     0     0    2.14274    0  545    4.00000    2.14274  46.4%     -   18s
     0     0    2.14806    0  567    4.00000    2.14806  46.3%     -   18s
     0     0    2.14876    0  572    4.00000    2.14876  46.3%     -   19s
     0     0    2.14881    0  568    4.00000    2.14881  46.3%     -   19s
     0     0    2.15405    0  541    4.00000    2.15405  46.1%     -   20s
     0     0    2.15480    0  542    4.00000    2.15480  46.1%     -   21s
     0     0    2.15484    0  539    4.00000    2.15484  46.1%     -   22s
     0     0    2.15993    0  575    4.00000    2.15993  46.0%     -   22s
     0     0    2.16017    0  601    4.00000    2.16017  46.0%     -   23s
     0     0    2.16017    0  609    4.00000    2.16017  46.0%     -   23s
     0     0    2.16266    0  605    4.00000    2.16266  45.9%     -   24s
     0     0    2.16272    0  600    4.00000    2.16272  45.9%     -   26s
     0     0    2.16506    0  616    4.00000    2.16506  45.9%     -   26s
     0     0    2.16508    0  538    4.00000    2.16508  45.9%     -   27s
     0     0    2.16649    0  576    4.00000    2.16649  45.8%     -   28s
     0     0    2.16686    0  574    4.00000    2.16686  45.8%     -   29s
     0     0    2.16687    0  563    4.00000    2.16687  45.8%     -   29s
     0     0    2.16860    0  552    4.00000    2.16860  45.8%     -   30s
     0     0    2.16865    0  552    4.00000    2.16865  45.8%     -   32s
     0     0    2.16993    0  556    4.00000    2.16993  45.8%     -   33s
     0     0    2.17010    0  571    4.00000    2.17010  45.7%     -   34s
     0     0    2.17015    0  566    4.00000    2.17015  45.7%     -   34s
     0     0    2.17099    0  567    4.00000    2.17099  45.7%     -   34s
     0     0    2.17099    0  567    4.00000    2.17099  45.7%     -   35s
     0     2    2.17099    0  567    4.00000    2.17099  45.7%     -  160s
     7     8    2.18027    4  358    4.00000    2.17154  45.7%   918  165s
    26    27    2.30100   12  289    4.00000    2.17154  45.7%   516  172s
    49    49    2.63825   28  161    4.00000    2.17154  45.7%   348  175s
    54    52     cutoff   31         4.00000    2.17277  45.7%   330  182s
    68    60    2.63137    7  697    4.00000    2.17277  45.7%   344  186s
    85    74    2.71161   14  617    4.00000    2.17277  45.7%   360  197s
    97    86    2.81772   20  560    4.00000    2.17277  45.7%   351  200s
   104    92    2.89389   24  526    4.00000    2.17277  45.7%   341  205s
   110    92    2.98237   27  471    4.00000    2.18029  45.5%   334  218s
   128   104    2.64557    8  648    4.00000    2.19585  45.1%   352  220s
   160   131    2.83245   20  509    4.00000    2.19585  45.1%   339  225s
   197   145    2.72711   11  560    4.00000    2.22030  44.5%   334  231s
   224   141     cutoff   19         4.00000    2.26043  43.5%   315  235s
   251   145    2.78165   13  570    4.00000    2.30370  42.4%   314  240s
   305   164    2.79412   15  285    4.00000    2.39565  40.1%   298  245s
   369   124     cutoff    7         4.00000    2.62536  34.4%   292  251s

Cutting planes:
  Gomory: 2
  MIR: 7
  Zero half: 78

Explored 522 nodes (140856 simplex iterations) in 255.03 seconds
Thread count was 4 (of 4 available processors)

Solution count 2: 4 5 

Optimal solution found (tolerance 1.00e-04)
Best objective 4.000000000000e+00, best bound 4.000000000000e+00, gap 0.0000%
